(set-info :smt-lib-version 2.6)
(set-logic QF_NIA)
(set-info :source |
Generated by: Cristina Borralleras, Daniel Larraz, Albert Oliveras, Enric Rodriguez-Carbonell, Albert Rubio
Generated on: 2017-04-27
Generator: VeryMax
Application: Termination proving
Target solver: barcelogic
|)
(set-info :license "https://creativecommons.org/licenses/by/4.0/")
(set-info :category "industrial")
(set-info :status sat)
(declare-fun Nl9main_x1 () Int)
(declare-fun Nl9main_y1 () Int)
(declare-fun Nl9main_z1 () Int)
(declare-fun Nl9main_x2 () Int)
(declare-fun Nl9main_y2 () Int)
(declare-fun Nl9main_z2 () Int)
(declare-fun lam0n0 () Int)
(declare-fun lam0n1 () Int)
(declare-fun lam0n2 () Int)
(declare-fun lam0n3 () Int)
(declare-fun lam0n4 () Int)
(declare-fun lam0n5 () Int)
(declare-fun lam0n6 () Int)
(declare-fun lam0n7 () Int)
(declare-fun Nl9CT1 () Int)
(declare-fun Nl9CT2 () Int)
(declare-fun lam1n0 () Int)
(declare-fun lam1n1 () Int)
(declare-fun lam1n2 () Int)
(declare-fun lam1n3 () Int)
(declare-fun lam1n4 () Int)
(declare-fun lam1n5 () Int)
(declare-fun lam1n6 () Int)
(declare-fun lam1n7 () Int)
(declare-fun lam2n0 () Int)
(declare-fun lam2n1 () Int)
(declare-fun lam2n2 () Int)
(declare-fun lam2n3 () Int)
(declare-fun lam2n4 () Int)
(declare-fun lam2n5 () Int)
(declare-fun lam2n6 () Int)
(declare-fun lam2n7 () Int)
(declare-fun lam3n0 () Int)
(declare-fun lam3n1 () Int)
(declare-fun lam3n2 () Int)
(declare-fun lam3n3 () Int)
(declare-fun lam3n4 () Int)
(declare-fun lam3n5 () Int)
(declare-fun lam3n6 () Int)
(declare-fun lam4n0 () Int)
(declare-fun lam4n1 () Int)
(declare-fun lam4n2 () Int)
(declare-fun lam4n3 () Int)
(declare-fun lam4n4 () Int)
(declare-fun lam4n5 () Int)
(declare-fun lam4n6 () Int)
(declare-fun lam5n0 () Int)
(declare-fun lam5n1 () Int)
(declare-fun lam5n2 () Int)
(declare-fun lam5n3 () Int)
(declare-fun lam5n4 () Int)
(declare-fun lam5n5 () Int)
(declare-fun lam5n6 () Int)
(declare-fun lam6n0 () Int)
(declare-fun lam6n1 () Int)
(declare-fun lam6n2 () Int)
(declare-fun lam6n3 () Int)
(declare-fun lam6n4 () Int)
(declare-fun lam6n5 () Int)
(declare-fun lam6n6 () Int)
(declare-fun lam7n0 () Int)
(declare-fun lam7n1 () Int)
(declare-fun lam7n2 () Int)
(declare-fun lam7n3 () Int)
(declare-fun lam7n4 () Int)
(declare-fun lam7n5 () Int)
(declare-fun lam7n6 () Int)
(declare-fun lam8n0 () Int)
(declare-fun lam8n1 () Int)
(declare-fun lam8n2 () Int)
(declare-fun lam8n3 () Int)
(declare-fun lam8n4 () Int)
(declare-fun lam8n5 () Int)
(declare-fun lam8n6 () Int)
(declare-fun lam9n0 () Int)
(declare-fun lam9n1 () Int)
(declare-fun lam9n2 () Int)
(declare-fun lam9n3 () Int)
(declare-fun lam9n4 () Int)
(declare-fun lam9n5 () Int)
(declare-fun lam9n6 () Int)
(declare-fun lam9n7 () Int)
(declare-fun lam9n8 () Int)
(declare-fun lam9n9 () Int)
(declare-fun lam10n0 () Int)
(declare-fun lam10n1 () Int)
(declare-fun lam10n2 () Int)
(declare-fun lam10n3 () Int)
(declare-fun lam10n4 () Int)
(declare-fun lam10n5 () Int)
(declare-fun lam10n6 () Int)
(declare-fun lam10n7 () Int)
(declare-fun lam10n8 () Int)
(declare-fun lam10n9 () Int)
(declare-fun lam11n0 () Int)
(declare-fun lam11n1 () Int)
(declare-fun lam11n2 () Int)
(declare-fun lam11n3 () Int)
(declare-fun lam11n4 () Int)
(declare-fun lam11n5 () Int)
(declare-fun lam11n6 () Int)
(declare-fun lam11n7 () Int)
(declare-fun lam11n8 () Int)
(declare-fun lam12n0 () Int)
(declare-fun lam12n1 () Int)
(declare-fun lam12n2 () Int)
(declare-fun lam12n3 () Int)
(declare-fun lam12n4 () Int)
(declare-fun lam12n5 () Int)
(declare-fun lam12n6 () Int)
(declare-fun lam12n7 () Int)
(declare-fun lam12n8 () Int)
(declare-fun lam13n0 () Int)
(declare-fun lam13n1 () Int)
(declare-fun lam13n2 () Int)
(declare-fun lam13n3 () Int)
(declare-fun lam13n4 () Int)
(declare-fun lam13n5 () Int)
(declare-fun lam13n6 () Int)
(declare-fun lam13n7 () Int)
(declare-fun lam13n8 () Int)
(declare-fun lam14n0 () Int)
(declare-fun lam14n1 () Int)
(declare-fun lam14n2 () Int)
(declare-fun lam14n3 () Int)
(declare-fun lam14n4 () Int)
(declare-fun lam14n5 () Int)
(declare-fun lam14n6 () Int)
(declare-fun lam14n7 () Int)
(declare-fun lam14n8 () Int)
(declare-fun undef4 () Int)
(declare-fun undef5 () Int)
(declare-fun undef6 () Int)
(declare-fun main_y () Int)
(declare-fun main_z () Int)
(declare-fun lam18n0 () Int)
(declare-fun lam18n1 () Int)
(declare-fun lam18n2 () Int)
(declare-fun lam18n3 () Int)
(declare-fun lam18n4 () Int)
(declare-fun lam18n5 () Int)
(declare-fun lam18n6 () Int)
(declare-fun RFN1_CT () Int)
(declare-fun RFN1_main_x () Int)
(declare-fun RFN1_main_y () Int)
(declare-fun RFN1_main_z () Int)
(declare-fun lam16n0 () Int)
(declare-fun lam16n1 () Int)
(declare-fun lam16n2 () Int)
(declare-fun lam16n3 () Int)
(declare-fun lam16n4 () Int)
(declare-fun lam16n5 () Int)
(declare-fun lam16n6 () Int)
(declare-fun lam17n0 () Int)
(declare-fun lam17n1 () Int)
(declare-fun lam17n2 () Int)
(declare-fun lam17n3 () Int)
(declare-fun lam17n4 () Int)
(declare-fun lam17n5 () Int)
(declare-fun lam17n6 () Int)
(declare-fun lam15n0 () Int)
(declare-fun lam15n1 () Int)
(declare-fun lam15n2 () Int)
(declare-fun lam15n3 () Int)
(declare-fun lam15n4 () Int)
(declare-fun lam15n5 () Int)
(declare-fun lam15n6 () Int)
(assert ( and ( <= ( - 1 ) Nl9main_x1 ) ( <= Nl9main_x1 1 ) ( <= ( - 1 ) Nl9main_y1 ) ( <= Nl9main_y1 1 ) ( <= ( - 1 ) Nl9main_z1 ) ( <= Nl9main_z1 1 ) ( <= ( - 1 ) Nl9main_x2 ) ( <= Nl9main_x2 1 ) ( <= ( - 1 ) Nl9main_y2 ) ( <= Nl9main_y2 1 ) ( <= ( - 1 ) Nl9main_z2 ) ( <= Nl9main_z2 1 ) ))
(assert ( or ( and ( >= lam0n0 0 ) ( >= lam0n1 0 ) ( >= lam0n2 0 ) ( >= lam0n3 0 ) ( >= lam0n4 0 ) ( >= lam0n5 0 ) ( >= lam0n6 0 ) ( >= lam0n7 0 ) ( > ( + ( * 1 lam0n2 ) ( * 1 lam0n3 ) ( * 1 lam0n4 ) ( * 3 lam0n5 ) ( * Nl9CT1 lam0n6 ) ( * Nl9CT2 lam0n7 ) ( - 1 ) ) 0 ) ( = ( + ( * 1 lam0n0 ) ( * ( - 1 ) lam0n2 ) ( * 1 lam0n5 ) ( * Nl9main_x1 lam0n6 ) ( * Nl9main_x2 lam0n7 ) ) 0 ) ( = ( + ( * 1 lam0n0 ) ( * ( - 1 ) lam0n2 ) ( * 1 lam0n3 ) ( * ( - 1 ) lam0n4 ) ( * Nl9main_y1 lam0n6 ) ( * Nl9main_y2 lam0n7 ) ) 0 ) ( = ( + ( * ( - 1 ) lam0n1 ) ( * ( - 1 ) lam0n2 ) ( * ( - 1 ) lam0n3 ) ( * ( - 1 ) lam0n5 ) ( * Nl9main_z1 lam0n6 ) ( * Nl9main_z2 lam0n7 ) ) 0 ) ) ( and ( >= lam1n0 0 ) ( >= lam1n1 0 ) ( >= lam1n2 0 ) ( >= lam1n3 0 ) ( >= lam1n4 0 ) ( >= lam1n5 0 ) ( >= lam1n6 0 ) ( >= lam1n7 0 ) ( > ( + ( * 1 lam1n2 ) ( * 1 lam1n3 ) ( * 1 lam1n4 ) ( * 3 lam1n5 ) ( * Nl9CT1 lam1n6 ) ( * Nl9CT2 lam1n7 ) ( - 1 ( + ( + Nl9CT1 ( * Nl9main_x1 1 ) ) ( * Nl9main_z1 ( - 1 ) ) ) ) ) 0 ) ( = ( + ( * 1 lam1n0 ) ( * ( - 1 ) lam1n2 ) ( * 1 lam1n5 ) ( * Nl9main_x1 lam1n6 ) ( * Nl9main_x2 lam1n7 ) ( - ( + 0 ( * Nl9main_x1 1 ) ) ) ) 0 ) ( = ( + ( * 1 lam1n0 ) ( * ( - 1 ) lam1n2 ) ( * 1 lam1n3 ) ( * ( - 1 ) lam1n4 ) ( * Nl9main_y1 lam1n6 ) ( * Nl9main_y2 lam1n7 ) ( - ( + 0 Nl9main_y1 ) ) ) 0 ) ( = ( + ( * ( - 1 ) lam1n1 ) ( * ( - 1 ) lam1n2 ) ( * ( - 1 ) lam1n3 ) ( * ( - 1 ) lam1n5 ) ( * Nl9main_z1 lam1n6 ) ( * Nl9main_z2 lam1n7 ) ( - ( + 0 ( * Nl9main_z1 1 ) ) ) ) 0 ) ) ))
(assert ( or ( and ( >= lam0n0 0 ) ( >= lam0n1 0 ) ( >= lam0n2 0 ) ( >= lam0n3 0 ) ( >= lam0n4 0 ) ( >= lam0n5 0 ) ( >= lam0n6 0 ) ( >= lam0n7 0 ) ( > ( + ( * 1 lam0n2 ) ( * 1 lam0n3 ) ( * 1 lam0n4 ) ( * 3 lam0n5 ) ( * Nl9CT1 lam0n6 ) ( * Nl9CT2 lam0n7 ) ( - 1 ) ) 0 ) ( = ( + ( * 1 lam0n0 ) ( * ( - 1 ) lam0n2 ) ( * 1 lam0n5 ) ( * Nl9main_x1 lam0n6 ) ( * Nl9main_x2 lam0n7 ) ) 0 ) ( = ( + ( * 1 lam0n0 ) ( * ( - 1 ) lam0n2 ) ( * 1 lam0n3 ) ( * ( - 1 ) lam0n4 ) ( * Nl9main_y1 lam0n6 ) ( * Nl9main_y2 lam0n7 ) ) 0 ) ( = ( + ( * ( - 1 ) lam0n1 ) ( * ( - 1 ) lam0n2 ) ( * ( - 1 ) lam0n3 ) ( * ( - 1 ) lam0n5 ) ( * Nl9main_z1 lam0n6 ) ( * Nl9main_z2 lam0n7 ) ) 0 ) ) ( and ( >= lam2n0 0 ) ( >= lam2n1 0 ) ( >= lam2n2 0 ) ( >= lam2n3 0 ) ( >= lam2n4 0 ) ( >= lam2n5 0 ) ( >= lam2n6 0 ) ( >= lam2n7 0 ) ( > ( + ( * 1 lam2n2 ) ( * 1 lam2n3 ) ( * 1 lam2n4 ) ( * 3 lam2n5 ) ( * Nl9CT1 lam2n6 ) ( * Nl9CT2 lam2n7 ) ( - 1 ( + ( + Nl9CT2 ( * Nl9main_x2 1 ) ) ( * Nl9main_z2 ( - 1 ) ) ) ) ) 0 ) ( = ( + ( * 1 lam2n0 ) ( * ( - 1 ) lam2n2 ) ( * 1 lam2n5 ) ( * Nl9main_x1 lam2n6 ) ( * Nl9main_x2 lam2n7 ) ( - ( + 0 ( * Nl9main_x2 1 ) ) ) ) 0 ) ( = ( + ( * 1 lam2n0 ) ( * ( - 1 ) lam2n2 ) ( * 1 lam2n3 ) ( * ( - 1 ) lam2n4 ) ( * Nl9main_y1 lam2n6 ) ( * Nl9main_y2 lam2n7 ) ( - ( + 0 Nl9main_y2 ) ) ) 0 ) ( = ( + ( * ( - 1 ) lam2n1 ) ( * ( - 1 ) lam2n2 ) ( * ( - 1 ) lam2n3 ) ( * ( - 1 ) lam2n5 ) ( * Nl9main_z1 lam2n6 ) ( * Nl9main_z2 lam2n7 ) ( - ( + 0 ( * Nl9main_z2 1 ) ) ) ) 0 ) ) ))
(assert ( or ( and ( >= lam3n0 0 ) ( >= lam3n1 0 ) ( >= lam3n2 0 ) ( >= lam3n3 0 ) ( >= lam3n4 0 ) ( >= lam3n5 0 ) ( >= lam3n6 0 ) ( > ( + ( * 1 lam3n1 ) ( * 1 lam3n2 ) ( * 1 lam3n3 ) ( * 1 lam3n4 ) ( * Nl9CT1 lam3n5 ) ( * Nl9CT2 lam3n6 ) ( - 1 ) ) 0 ) ( = ( + ( * ( - 1 ) lam3n1 ) ( * ( - 1 ) lam3n2 ) ( * Nl9main_x1 lam3n5 ) ( * Nl9main_x2 lam3n6 ) ) 0 ) ( = ( + ( * ( - 1 ) lam3n1 ) ( * ( - 1 ) lam3n2 ) ( * 1 lam3n3 ) ( * ( - 1 ) lam3n4 ) ( * Nl9main_y1 lam3n5 ) ( * Nl9main_y2 lam3n6 ) ) 0 ) ( = ( + ( * ( - 1 ) lam3n0 ) ( * ( - 1 ) lam3n2 ) ( * ( - 1 ) lam3n3 ) ( * Nl9main_z1 lam3n5 ) ( * Nl9main_z2 lam3n6 ) ) 0 ) ) ( and ( >= lam4n0 0 ) ( >= lam4n1 0 ) ( >= lam4n2 0 ) ( >= lam4n3 0 ) ( >= lam4n4 0 ) ( >= lam4n5 0 ) ( >= lam4n6 0 ) ( > ( + ( * 1 lam4n1 ) ( * 1 lam4n2 ) ( * 1 lam4n3 ) ( * 1 lam4n4 ) ( * Nl9CT1 lam4n5 ) ( * Nl9CT2 lam4n6 ) ( - 1 ( + ( + Nl9CT1 ( * Nl9main_x1 1 ) ) ( * Nl9main_z1 ( - 1 ) ) ) ) ) 0 ) ( = ( + ( * ( - 1 ) lam4n1 ) ( * ( - 1 ) lam4n2 ) ( * Nl9main_x1 lam4n5 ) ( * Nl9main_x2 lam4n6 ) ( - ( + 0 ( * Nl9main_x1 1 ) ) ) ) 0 ) ( = ( + ( * ( - 1 ) lam4n1 ) ( * ( - 1 ) lam4n2 ) ( * 1 lam4n3 ) ( * ( - 1 ) lam4n4 ) ( * Nl9main_y1 lam4n5 ) ( * Nl9main_y2 lam4n6 ) ( - ( + 0 Nl9main_y1 ) ) ) 0 ) ( = ( + ( * ( - 1 ) lam4n0 ) ( * ( - 1 ) lam4n2 ) ( * ( - 1 ) lam4n3 ) ( * Nl9main_z1 lam4n5 ) ( * Nl9main_z2 lam4n6 ) ( - ( + 0 ( * Nl9main_z1 1 ) ) ) ) 0 ) ) ))
(assert ( or ( and ( >= lam3n0 0 ) ( >= lam3n1 0 ) ( >= lam3n2 0 ) ( >= lam3n3 0 ) ( >= lam3n4 0 ) ( >= lam3n5 0 ) ( >= lam3n6 0 ) ( > ( + ( * 1 lam3n1 ) ( * 1 lam3n2 ) ( * 1 lam3n3 ) ( * 1 lam3n4 ) ( * Nl9CT1 lam3n5 ) ( * Nl9CT2 lam3n6 ) ( - 1 ) ) 0 ) ( = ( + ( * ( - 1 ) lam3n1 ) ( * ( - 1 ) lam3n2 ) ( * Nl9main_x1 lam3n5 ) ( * Nl9main_x2 lam3n6 ) ) 0 ) ( = ( + ( * ( - 1 ) lam3n1 ) ( * ( - 1 ) lam3n2 ) ( * 1 lam3n3 ) ( * ( - 1 ) lam3n4 ) ( * Nl9main_y1 lam3n5 ) ( * Nl9main_y2 lam3n6 ) ) 0 ) ( = ( + ( * ( - 1 ) lam3n0 ) ( * ( - 1 ) lam3n2 ) ( * ( - 1 ) lam3n3 ) ( * Nl9main_z1 lam3n5 ) ( * Nl9main_z2 lam3n6 ) ) 0 ) ) ( and ( >= lam5n0 0 ) ( >= lam5n1 0 ) ( >= lam5n2 0 ) ( >= lam5n3 0 ) ( >= lam5n4 0 ) ( >= lam5n5 0 ) ( >= lam5n6 0 ) ( > ( + ( * 1 lam5n1 ) ( * 1 lam5n2 ) ( * 1 lam5n3 ) ( * 1 lam5n4 ) ( * Nl9CT1 lam5n5 ) ( * Nl9CT2 lam5n6 ) ( - 1 ( + ( + Nl9CT2 ( * Nl9main_x2 1 ) ) ( * Nl9main_z2 ( - 1 ) ) ) ) ) 0 ) ( = ( + ( * ( - 1 ) lam5n1 ) ( * ( - 1 ) lam5n2 ) ( * Nl9main_x1 lam5n5 ) ( * Nl9main_x2 lam5n6 ) ( - ( + 0 ( * Nl9main_x2 1 ) ) ) ) 0 ) ( = ( + ( * ( - 1 ) lam5n1 ) ( * ( - 1 ) lam5n2 ) ( * 1 lam5n3 ) ( * ( - 1 ) lam5n4 ) ( * Nl9main_y1 lam5n5 ) ( * Nl9main_y2 lam5n6 ) ( - ( + 0 Nl9main_y2 ) ) ) 0 ) ( = ( + ( * ( - 1 ) lam5n0 ) ( * ( - 1 ) lam5n2 ) ( * ( - 1 ) lam5n3 ) ( * Nl9main_z1 lam5n5 ) ( * Nl9main_z2 lam5n6 ) ( - ( + 0 ( * Nl9main_z2 1 ) ) ) ) 0 ) ) ))
(assert ( or ( and ( >= lam6n0 0 ) ( >= lam6n1 0 ) ( >= lam6n2 0 ) ( >= lam6n3 0 ) ( >= lam6n4 0 ) ( >= lam6n5 0 ) ( >= lam6n6 0 ) ( > ( + ( * 1 lam6n2 ) ( * 1 lam6n3 ) ( * 1 lam6n4 ) ( * Nl9CT1 lam6n5 ) ( * Nl9CT2 lam6n6 ) ( - 1 ) ) 0 ) ( = ( + ( * ( - 1 ) lam6n2 ) ( * ( - 1 ) lam6n3 ) ( * Nl9main_x1 lam6n5 ) ( * Nl9main_x2 lam6n6 ) ) 0 ) ( = ( + ( * ( - 1 ) lam6n0 ) ( * ( - 1 ) lam6n2 ) ( * ( - 1 ) lam6n3 ) ( * ( - 1 ) lam6n4 ) ( * Nl9main_y1 lam6n5 ) ( * Nl9main_y2 lam6n6 ) ) 0 ) ( = ( + ( * 1 lam6n0 ) ( * ( - 1 ) lam6n1 ) ( * ( - 1 ) lam6n3 ) ( * Nl9main_z1 lam6n5 ) ( * Nl9main_z2 lam6n6 ) ) 0 ) ) ( and ( >= lam7n0 0 ) ( >= lam7n1 0 ) ( >= lam7n2 0 ) ( >= lam7n3 0 ) ( >= lam7n4 0 ) ( >= lam7n5 0 ) ( >= lam7n6 0 ) ( > ( + ( * 1 lam7n2 ) ( * 1 lam7n3 ) ( * 1 lam7n4 ) ( * Nl9CT1 lam7n5 ) ( * Nl9CT2 lam7n6 ) ( - 1 ( + ( + Nl9CT1 ( * Nl9main_x1 ( - 1 ) ) ) ( * Nl9main_y1 0 ) ) ) ) 0 ) ( = ( + ( * ( - 1 ) lam7n2 ) ( * ( - 1 ) lam7n3 ) ( * Nl9main_x1 lam7n5 ) ( * Nl9main_x2 lam7n6 ) ( - ( + ( + 0 ( * Nl9main_x1 1 ) ) ( * Nl9main_y1 1 ) ) ) ) 0 ) ( = ( + ( * ( - 1 ) lam7n0 ) ( * ( - 1 ) lam7n2 ) ( * ( - 1 ) lam7n3 ) ( * ( - 1 ) lam7n4 ) ( * Nl9main_y1 lam7n5 ) ( * Nl9main_y2 lam7n6 ) ( - ( + 0 ( * Nl9main_y1 1 ) ) ) ) 0 ) ( = ( + ( * 1 lam7n0 ) ( * ( - 1 ) lam7n1 ) ( * ( - 1 ) lam7n3 ) ( * Nl9main_z1 lam7n5 ) ( * Nl9main_z2 lam7n6 ) ( - ( + 0 Nl9main_z1 ) ) ) 0 ) ) ))
(assert ( or ( and ( >= lam6n0 0 ) ( >= lam6n1 0 ) ( >= lam6n2 0 ) ( >= lam6n3 0 ) ( >= lam6n4 0 ) ( >= lam6n5 0 ) ( >= lam6n6 0 ) ( > ( + ( * 1 lam6n2 ) ( * 1 lam6n3 ) ( * 1 lam6n4 ) ( * Nl9CT1 lam6n5 ) ( * Nl9CT2 lam6n6 ) ( - 1 ) ) 0 ) ( = ( + ( * ( - 1 ) lam6n2 ) ( * ( - 1 ) lam6n3 ) ( * Nl9main_x1 lam6n5 ) ( * Nl9main_x2 lam6n6 ) ) 0 ) ( = ( + ( * ( - 1 ) lam6n0 ) ( * ( - 1 ) lam6n2 ) ( * ( - 1 ) lam6n3 ) ( * ( - 1 ) lam6n4 ) ( * Nl9main_y1 lam6n5 ) ( * Nl9main_y2 lam6n6 ) ) 0 ) ( = ( + ( * 1 lam6n0 ) ( * ( - 1 ) lam6n1 ) ( * ( - 1 ) lam6n3 ) ( * Nl9main_z1 lam6n5 ) ( * Nl9main_z2 lam6n6 ) ) 0 ) ) ( and ( >= lam8n0 0 ) ( >= lam8n1 0 ) ( >= lam8n2 0 ) ( >= lam8n3 0 ) ( >= lam8n4 0 ) ( >= lam8n5 0 ) ( >= lam8n6 0 ) ( > ( + ( * 1 lam8n2 ) ( * 1 lam8n3 ) ( * 1 lam8n4 ) ( * Nl9CT1 lam8n5 ) ( * Nl9CT2 lam8n6 ) ( - 1 ( + ( + Nl9CT2 ( * Nl9main_x2 ( - 1 ) ) ) ( * Nl9main_y2 0 ) ) ) ) 0 ) ( = ( + ( * ( - 1 ) lam8n2 ) ( * ( - 1 ) lam8n3 ) ( * Nl9main_x1 lam8n5 ) ( * Nl9main_x2 lam8n6 ) ( - ( + ( + 0 ( * Nl9main_x2 1 ) ) ( * Nl9main_y2 1 ) ) ) ) 0 ) ( = ( + ( * ( - 1 ) lam8n0 ) ( * ( - 1 ) lam8n2 ) ( * ( - 1 ) lam8n3 ) ( * ( - 1 ) lam8n4 ) ( * Nl9main_y1 lam8n5 ) ( * Nl9main_y2 lam8n6 ) ( - ( + 0 ( * Nl9main_y2 1 ) ) ) ) 0 ) ( = ( + ( * 1 lam8n0 ) ( * ( - 1 ) lam8n1 ) ( * ( - 1 ) lam8n3 ) ( * Nl9main_z1 lam8n5 ) ( * Nl9main_z2 lam8n6 ) ( - ( + 0 Nl9main_z2 ) ) ) 0 ) ) ))
(assert ( or ( and ( <= ( + ( - 10000 ) undef4 ) 0 ) ( <= ( + ( - 10000 ) ( * ( - 1 ) undef4 ) ) 0 ) ( <= ( + ( - 10000 ) undef5 ) 0 ) ( <= ( + ( - 10000 ) undef6 ) 0 ) ( <= ( + 1 ( * ( - 1 ) undef5 ) ) 0 ) ( <= ( + ( - 1 ) main_y undef4 ) 0 ) ( not ( <= ( + ( - 1 ) main_y main_z undef4 ) 0 ) ) ( not ( <= ( + ( - 1 ) main_z ( * ( - 1 ) undef4 ) ) 0 ) ) ( = ( + main_y ( * ( - 1 ) undef5 ) ) 0 ) ( = ( + main_z ( * ( - 1 ) undef6 ) ) 0 ) ( <= ( + ( + Nl9CT1 ( * Nl9main_x1 ( - 1 ) ) ) ( * ( + 0 Nl9main_y1 ) main_y ) ( * ( + 0 Nl9main_z1 ) main_z ) ( * ( + 0 ( * Nl9main_x1 1 ) ) undef4 ) ) 0 ) ( <= ( + ( + Nl9CT2 ( * Nl9main_x2 ( - 1 ) ) ) ( * ( + 0 Nl9main_y2 ) main_y ) ( * ( + 0 Nl9main_z2 ) main_z ) ( * ( + 0 ( * Nl9main_x2 1 ) ) undef4 ) ) 0 ) ( <= ( + 1 ( * ( - 1 ) main_y ) ) 0 ) ( <= ( * ( - 1 ) main_z ) 0 ) ( <= ( + 1 ( * ( - 1 ) main_y ) ) 0 ) ) ( and ( <= ( + ( - 10000 ) undef4 ) 0 ) ( <= ( + ( - 10000 ) ( * ( - 1 ) undef4 ) ) 0 ) ( <= ( + ( - 10000 ) undef5 ) 0 ) ( <= ( + ( - 10000 ) undef6 ) 0 ) ( <= ( + 1 ( * ( - 1 ) undef5 ) ) 0 ) ( <= ( + ( - 1 ) main_y main_z undef4 ) 0 ) ( not ( <= ( + ( - 2 ) main_y undef4 ) 0 ) ) ( = ( + main_y ( * ( - 1 ) undef5 ) ) 0 ) ( = ( + main_z ( * ( - 1 ) undef6 ) ) 0 ) ( <= ( + ( + Nl9CT1 ( * Nl9main_x1 ( - 1 ) ) ) ( * ( + 0 Nl9main_y1 ) main_y ) ( * ( + 0 Nl9main_z1 ) main_z ) ( * ( + 0 ( * Nl9main_x1 1 ) ) undef4 ) ) 0 ) ( <= ( + ( + Nl9CT2 ( * Nl9main_x2 ( - 1 ) ) ) ( * ( + 0 Nl9main_y2 ) main_y ) ( * ( + 0 Nl9main_z2 ) main_z ) ( * ( + 0 ( * Nl9main_x2 1 ) ) undef4 ) ) 0 ) ( <= ( + 1 ( * ( - 1 ) main_y ) ) 0 ) ( <= ( * ( - 1 ) main_z ) 0 ) ( <= ( + 1 ( * ( - 1 ) main_y ) ) 0 ) ) ( and ( <= ( + ( - 10000 ) undef4 ) 0 ) ( <= ( + ( - 10000 ) ( * ( - 1 ) undef4 ) ) 0 ) ( <= ( + ( - 10000 ) undef5 ) 0 ) ( <= ( + ( - 10000 ) undef6 ) 0 ) ( <= ( + 1 ( * ( - 1 ) undef5 ) ) 0 ) ( not ( <= ( + ( - 1 ) main_y main_z undef4 ) 0 ) ) ( not ( <= ( + ( - 1 ) main_y undef4 ) 0 ) ) ( = ( + main_y ( * ( - 1 ) undef5 ) ) 0 ) ( = ( + main_z ( * ( - 1 ) undef6 ) ) 0 ) ( <= ( + ( + Nl9CT1 ( * Nl9main_x1 ( - 1 ) ) ) ( * ( + 0 Nl9main_y1 ) main_y ) ( * ( + 0 Nl9main_z1 ) main_z ) ( * ( + 0 ( * Nl9main_x1 1 ) ) undef4 ) ) 0 ) ( <= ( + ( + Nl9CT2 ( * Nl9main_x2 ( - 1 ) ) ) ( * ( + 0 Nl9main_y2 ) main_y ) ( * ( + 0 Nl9main_z2 ) main_z ) ( * ( + 0 ( * Nl9main_x2 1 ) ) undef4 ) ) 0 ) ( <= ( + 1 ( * ( - 1 ) main_y ) ) 0 ) ( <= ( * ( - 1 ) main_z ) 0 ) ( <= ( + 1 ( * ( - 1 ) main_y ) ) 0 ) ) ))
(assert ( or ( and ( and ( >= lam18n0 0 ) ( >= lam18n1 0 ) ( >= lam18n2 0 ) ( >= lam18n3 0 ) ( >= lam18n4 0 ) ( >= lam18n5 0 ) ( >= lam18n6 0 ) ( > ( + ( * 1 lam18n2 ) ( * 1 lam18n3 ) ( * 1 lam18n4 ) ( * Nl9CT1 lam18n5 ) ( * Nl9CT2 lam18n6 ) ( - 1 ( - ( + ( + RFN1_CT ( * RFN1_main_x ( - 1 ) ) ) ( * RFN1_main_y 0 ) ) RFN1_CT ) ) ) 0 ) ( = ( + ( * ( - 1 ) lam18n2 ) ( * ( - 1 ) lam18n3 ) ( * Nl9main_x1 lam18n5 ) ( * Nl9main_x2 lam18n6 ) ( - ( - ( + ( + 0 ( * RFN1_main_x 1 ) ) ( * RFN1_main_y 1 ) ) RFN1_main_x ) ) ) 0 ) ( = ( + ( * ( - 1 ) lam18n0 ) ( * ( - 1 ) lam18n2 ) ( * ( - 1 ) lam18n3 ) ( * ( - 1 ) lam18n4 ) ( * Nl9main_y1 lam18n5 ) ( * Nl9main_y2 lam18n6 ) ( - ( - ( + 0 ( * RFN1_main_y 1 ) ) RFN1_main_y ) ) ) 0 ) ( = ( + ( * 1 lam18n0 ) ( * ( - 1 ) lam18n1 ) ( * ( - 1 ) lam18n3 ) ( * Nl9main_z1 lam18n5 ) ( * Nl9main_z2 lam18n6 ) ( - ( - ( + 0 RFN1_main_z ) RFN1_main_z ) ) ) 0 ) ) ( and ( and ( >= lam16n0 0 ) ( >= lam16n1 0 ) ( >= lam16n2 0 ) ( >= lam16n3 0 ) ( >= lam16n4 0 ) ( >= lam16n5 0 ) ( >= lam16n6 0 ) ( > ( + ( * 1 lam16n2 ) ( * 1 lam16n3 ) ( * 1 lam16n4 ) ( * Nl9CT1 lam16n5 ) ( * Nl9CT2 lam16n6 ) ( - 1 ( - RFN1_CT ) ) ) 0 ) ( = ( + ( * ( - 1 ) lam16n2 ) ( * ( - 1 ) lam16n3 ) ( * Nl9main_x1 lam16n5 ) ( * Nl9main_x2 lam16n6 ) ( - ( - RFN1_main_x ) ) ) 0 ) ( = ( + ( * ( - 1 ) lam16n0 ) ( * ( - 1 ) lam16n2 ) ( * ( - 1 ) lam16n3 ) ( * ( - 1 ) lam16n4 ) ( * Nl9main_y1 lam16n5 ) ( * Nl9main_y2 lam16n6 ) ( - ( - RFN1_main_y ) ) ) 0 ) ( = ( + ( * 1 lam16n0 ) ( * ( - 1 ) lam16n1 ) ( * ( - 1 ) lam16n3 ) ( * Nl9main_z1 lam16n5 ) ( * Nl9main_z2 lam16n6 ) ( - ( - RFN1_main_z ) ) ) 0 ) ) ( and ( >= lam17n0 0 ) ( >= lam17n1 0 ) ( >= lam17n2 0 ) ( >= lam17n3 0 ) ( >= lam17n4 0 ) ( >= lam17n5 0 ) ( >= lam17n6 0 ) ( > ( + ( * 1 lam17n2 ) ( * 1 lam17n3 ) ( * 1 lam17n4 ) ( * Nl9CT1 lam17n5 ) ( * Nl9CT2 lam17n6 ) ( - 1 ( + ( - ( + ( + RFN1_CT ( * RFN1_main_x ( - 1 ) ) ) ( * RFN1_main_y 0 ) ) RFN1_CT ) 1 ) ) ) 0 ) ( = ( + ( * ( - 1 ) lam17n2 ) ( * ( - 1 ) lam17n3 ) ( * Nl9main_x1 lam17n5 ) ( * Nl9main_x2 lam17n6 ) ( - ( - ( + ( + 0 ( * RFN1_main_x 1 ) ) ( * RFN1_main_y 1 ) ) RFN1_main_x ) ) ) 0 ) ( = ( + ( * ( - 1 ) lam17n0 ) ( * ( - 1 ) lam17n2 ) ( * ( - 1 ) lam17n3 ) ( * ( - 1 ) lam17n4 ) ( * Nl9main_y1 lam17n5 ) ( * Nl9main_y2 lam17n6 ) ( - ( - ( + 0 ( * RFN1_main_y 1 ) ) RFN1_main_y ) ) ) 0 ) ( = ( + ( * 1 lam17n0 ) ( * ( - 1 ) lam17n1 ) ( * ( - 1 ) lam17n3 ) ( * Nl9main_z1 lam17n5 ) ( * Nl9main_z2 lam17n6 ) ( - ( - ( + 0 RFN1_main_z ) RFN1_main_z ) ) ) 0 ) ) ) ) ( and ( >= lam15n0 0 ) ( >= lam15n1 0 ) ( >= lam15n2 0 ) ( >= lam15n3 0 ) ( >= lam15n4 0 ) ( >= lam15n5 0 ) ( >= lam15n6 0 ) ( > ( + ( * 1 lam15n2 ) ( * 1 lam15n3 ) ( * 1 lam15n4 ) ( * Nl9CT1 lam15n5 ) ( * Nl9CT2 lam15n6 ) ( - 1 ) ) 0 ) ( = ( + ( * ( - 1 ) lam15n2 ) ( * ( - 1 ) lam15n3 ) ( * Nl9main_x1 lam15n5 ) ( * Nl9main_x2 lam15n6 ) ) 0 ) ( = ( + ( * ( - 1 ) lam15n0 ) ( * ( - 1 ) lam15n2 ) ( * ( - 1 ) lam15n3 ) ( * ( - 1 ) lam15n4 ) ( * Nl9main_y1 lam15n5 ) ( * Nl9main_y2 lam15n6 ) ) 0 ) ( = ( + ( * 1 lam15n0 ) ( * ( - 1 ) lam15n1 ) ( * ( - 1 ) lam15n3 ) ( * Nl9main_z1 lam15n5 ) ( * Nl9main_z2 lam15n6 ) ) 0 ) ) ))
(check-sat)
(exit)
